Route #1: 99 100 97 93 92 94 95 96
Route #2: 10 11 9 6
Route #3: 18 19 15 16 14 12 8 7
Route #4: 23 26 28 30 17 13
Route #5: 57 60 58 56 53 54 55
Route #6: 5 3 4 2 1 75
Route #7: 41 40 59 68 69
Route #8: 90 87 86 89 91
Route #9: 98 88 85 84 82 83
Route #10: 77 73 70 71 76 78
Route #11: 20 24 27 25 22 21
Route #12: 49 52 50 51 31 35 37 38 39
Route #13: 32 33 36 34 29
Route #14: 67 65 62 74 63
Route #15: 43 42 44 45 48 46 47
Route #16: 81 79 80 72 61 64 66
Cost 1220.990690